# melt of rings
# ./xmovie -scale dump.brush
# ./lmp_mac2 < in.brush &
# here N is no of chain and M is no. of monomers
 

units		lj
atom_style	angle
#comm_modify mode single cutoff 2.5
# periodic box in x,y, fixed in z

boundary	p p p 

# input data
read_data initial_data/initialN96N96nca104data/dir0/pos.lammps
mass * 1.0
# define group
#group           molecule type 1
shell mkdir data
# Kremer-Grest: LJ + FENE
pair_style      lj/cut 1.122462048
pair_coeff      * * 1.0 1.0 1.122462048
pair_modify 	shift yes
bond_style      fene
bond_coeff      1 30.0 1.5 1.0 1.0
special_bonds   fene
angle_style     cosine
angle_coeff     1 1.5

neighbor        1.0 bin # is default behavior for lj units
neigh_modify    every 2 delay 0 check yes #suggested is 20 0 no
variable atoms equal atoms

variable volume equal vol 

variable rho1 equal ${atoms}/${volume}

variable scalef equal (${rho1}/0.85)^(0.3333333333333333333333333333)

# Langevin dynamics 
fix		1 all nve
fix             2 all langevin 1.0 1.0 10.0 2207
thermo 100
thermo_style    custom step time temp epair ebond pe etotal density
timestep 0.01
shell mkdir data_warmup
dump		1 all custom 2000 data_warmup/test_pos*.dat id type xu yu zu
log 		data_warmup/log.dat
run 1000000

fix		3 all deform 1 x scale ${scalef} y scale ${scalef} z scale ${scalef} remap x
#build a wall
#variable                                radius equal 45.0-(45.0-27.4446)*(step/10000)
#region                                  nucleus sphere 0.0 0.0 0.0 v_radius side in #10.0 side in #
#fix                                             wall all wall/region nucleus lj126 1.0 1.0 1.122462048

#fix extra all print 100 "rad = ${radius}"


#write_restart pos.restart.*.dat
# run
shell mkdir data
dump		2 all custom 2000 data/test_pos*.dat id type xu yu zu
log 		data/log.dat
timestep        0.005
thermo_style    custom step time temp epair ebond pe etotal density
thermo          100	
run             100000

write_restart   data/restart.test_pos
write_data    data/data.test_pos
